SCIP version 5.0.0 [precision: 8 byte] [memory: block] [mode: optimized] [LP solver: NONE] [GitHash: 3bbd232]
Copyright (C) 2002-2017 Konrad-Zuse-Zentrum fuer Informationstechnik Berlin (ZIB)

External codes: 
  Readline EditLine w  GNU library for command line editing (gnu.org/s/readline)
  CppAD 20160000.1     Algorithmic Differentiation of C++ algorithms developed by B. Bell (www.coin-or.org/CppAD)
  ZLIB 1.2.5           General purpose compression library by J. Gailly and M. Adler (zlib.net)
  GMP 6.1.2            GNU Multiple Precision Arithmetic Library developed by T. Granlund (gmplib.org)

user parameter file <scip.set> not found - using default parameters

read problem <../../Split_data/output/seismic-bumps/3/1_sample_seismic-bumps.logreg>
============

File name	:	../../Split_data/output/seismic-bumps/3/1_sample_seismic-bumps.logreg
Problem name 	:	1_sample_seismic-bumps
Number of data	:	2068
Number of var	:	21
The given data has linear dependence
4 sets of column vector are linearly dependent:
{ 2 3}, { 4 5 6}, { 7 8}, { 13 14 15}, 

[dim=1] time: 0.035832
[dim=2] time: 0.07048
[dim=3] time: 0.104213
[dim=4] time: 0.132409
[dim=5] time: 0.16275
[dim=6] time: 0.194388
[dim=7] time: 0.221851
[dim=8] Time of forward = 0.245576sec.
AIC: 848.629
k: 7

[dim=17] time: 0.407229
[dim=16] time: 2.74214
[dim=15] time: 3.30201
[dim=14] time: 4.64658
[dim=13] time: 6.0164
[dim=12] time: 6.0544
[dim=11] time: 6.0933
[dim=10] time: 6.11146
[dim=9] time: 6.14025
[dim=8] Time of backward = 6.1678sec.
AIC: 843.389
k: 9
